p edge 262 252
e 1 2
e 1 3
e 1 4
e 1 5
e 1 6
e 1 7
e 1 8
e 1 9
e 1 10
e 1 11
e 1 12
e 1 13
e 1 14
e 15 16
e 15 17
e 15 18
e 15 19
e 15 20
e 15 21
e 15 22
e 15 23
e 15 24
e 15 25
e 15 26
e 15 27
e 15 28
e 15 29
e 15 30
e 15 31
e 15 32
e 15 33
e 15 34
e 15 35
e 15 36
e 15 37
e 15 38
e 15 39
e 15 40
e 15 41
e 15 42
e 15 43
e 15 44
e 15 45
e 15 46
e 15 47
e 15 48
e 15 49
e 15 50
e 15 51
e 15 52
e 53 54
e 53 55
e 53 56
e 53 57
e 53 58
e 53 59
e 53 60
e 53 61
e 53 62
e 53 63
e 53 64
e 53 65
e 53 66
e 53 67
e 53 68
e 53 69
e 53 70
e 53 71
e 53 72
e 53 73
e 53 74
e 53 75
e 53 76
e 53 77
e 53 78
e 53 79
e 53 80
e 53 81
e 82 83
e 82 84
e 82 85
e 82 86
e 82 87
e 82 88
e 82 89
e 82 90
e 82 91
e 82 92
e 82 93
e 82 94
e 82 95
e 82 96
e 82 97
e 82 98
e 82 99
e 82 100
e 82 101
e 82 102
e 82 103
e 104 105
e 104 106
e 104 107
e 104 108
e 104 109
e 104 110
e 104 111
e 104 112
e 104 113
e 104 114
e 104 115
e 104 116
e 104 117
e 104 118
e 104 119
e 104 120
e 104 121
e 104 122
e 104 123
e 104 124
e 104 125
e 104 126
e 104 127
e 128 129
e 128 130
e 128 131
e 128 132
e 128 133
e 128 134
e 128 135
e 128 136
e 128 137
e 128 138
e 128 139
e 140 141
e 140 142
e 140 143
e 140 144
e 140 145
e 140 146
e 140 147
e 140 148
e 140 149
e 140 150
e 140 151
e 140 152
e 140 153
e 140 154
e 140 155
e 140 156
e 140 157
e 140 158
e 140 159
e 140 160
e 140 161
e 140 162
e 140 163
e 140 164
e 140 165
e 140 166
e 167 168
e 167 169
e 167 170
e 167 171
e 167 172
e 167 173
e 167 174
e 167 175
e 167 176
e 167 177
e 167 178
e 167 179
e 167 180
e 167 181
e 167 182
e 167 183
e 167 184
e 167 185
e 167 186
e 167 187
e 167 188
e 167 189
e 167 190
e 167 191
e 167 192
e 167 193
e 194 195
e 194 196
e 194 197
e 194 198
e 194 199
e 194 200
e 194 201
e 194 202
e 194 203
e 194 204
e 194 205
e 194 206
e 194 207
e 194 208
e 194 209
e 194 210
e 194 211
e 194 212
e 194 213
e 194 214
e 194 215
e 194 216
e 194 217
e 194 218
e 194 219
e 194 220
e 194 221
e 222 223
e 222 224
e 222 225
e 222 226
e 222 227
e 222 228
e 222 229
e 222 230
e 222 231
e 222 232
e 222 233
e 222 234
e 222 235
e 222 236
e 222 237
e 222 238
e 222 239
e 222 240
e 222 241
e 222 242
e 222 243
e 222 244
e 222 245
e 222 246
e 222 247
e 222 248
e 222 249
e 222 250
e 222 251
e 222 252
e 222 253
e 222 254
e 222 255
e 222 256
e 222 257
e 222 258
e 222 259
e 222 260
e 222 261
e 222 262
